32      4       
17      13      11      13      
0       0       0       0       0       2       2       5       
3       0       6       0       10      3       3       6       10      
4       0       0       3       1       1       4       
1       0       8       0       6       2       7       8       
2       1       0       0       3       2       7       11      
5       8       0       0       6       3       11      12      13      
1       0       1       1       0       3       12      13      18      
5       1       0       1       0       1       9       
6       0       0       9       1       2       12      18      
10      6       0       0       2       2       13      18      
7       0       2       7       0       3       15      18      22      
9       1       0       0       3       2       14      16      
5       0       1       1       0       1       14      
5       1       3       0       0       2       15      22      
4       0       5       0       1       1       17      
3       0       8       0       4       1       17      
7       0       6       1       0       3       19      27      28      
9       7       1       0       0       3       20      26      28      
9       1       1       0       0       2       21      26      
8       4       0       1       0       3       24      27      31      
4       3       1       0       0       1       23      
6       0       4       0       1       1       23      
9       2       0       5       0       1       24      
6       4       0       0       1       2       25      30      
2       0       1       0       3       1       29      
10      9       0       5       0       1       31      
5       10      0       3       0       1       29      
8       0       0       1       1       1       31      
7       0       1       1       0       1       32      
2       0       0       1       6       1       32      
6       6       0       1       0       1       32      
0       0       0       0       0       0       
